50

  0    1    2    3    4    1    2    3    4    5    2    3    4    5    6    3    4    5    6    7    4    5    6    7    8    5    6    7    8    9    6    7    8    9   10    7    8    9   10   11    8    9   10   11   12    9   10   11   12   13  
  1    0    1    2    3    2    1    2    3    4    3    2    3    4    5    4    3    4    5    6    5    4    5    6    7    6    5    6    7    8    7    6    7    8    9    8    7    8    9   10    9    8    9   10   11   10    9   10   11   12  
  2    1    0    1    2    3    2    1    2    3    4    3    2    3    4    5    4    3    4    5    6    5    4    5    6    7    6    5    6    7    8    7    6    7    8    9    8    7    8    9   10    9    8    9   10   11   10    9   10   11  
  3    2    1    0    1    4    3    2    1    2    5    4    3    2    3    6    5    4    3    4    7    6    5    4    5    8    7    6    5    6    9    8    7    6    7   10    9    8    7    8   11   10    9    8    9   12   11   10    9   10  
  4    3    2    1    0    5    4    3    2    1    6    5    4    3    2    7    6    5    4    3    8    7    6    5    4    9    8    7    6    5   10    9    8    7    6   11   10    9    8    7   12   11   10    9    8   13   12   11   10    9  
  1    2    3    4    5    0    1    2    3    4    1    2    3    4    5    2    3    4    5    6    3    4    5    6    7    4    5    6    7    8    5    6    7    8    9    6    7    8    9   10    7    8    9   10   11    8    9   10   11   12  
  2    1    2    3    4    1    0    1    2    3    2    1    2    3    4    3    2    3    4    5    4    3    4    5    6    5    4    5    6    7    6    5    6    7    8    7    6    7    8    9    8    7    8    9   10    9    8    9   10   11  
  3    2    1    2    3    2    1    0    1    2    3    2    1    2    3    4    3    2    3    4    5    4    3    4    5    6    5    4    5    6    7    6    5    6    7    8    7    6    7    8    9    8    7    8    9   10    9    8    9   10  
  4    3    2    1    2    3    2    1    0    1    4    3    2    1    2    5    4    3    2    3    6    5    4    3    4    7    6    5    4    5    8    7    6    5    6    9    8    7    6    7   10    9    8    7    8   11   10    9    8    9  
  5    4    3    2    1    4    3    2    1    0    5    4    3    2    1    6    5    4    3    2    7    6    5    4    3    8    7    6    5    4    9    8    7    6    5   10    9    8    7    6   11   10    9    8    7   12   11   10    9    8  
  2    3    4    5    6    1    2    3    4    5    0    1    2    3    4    1    2    3    4    5    2    3    4    5    6    3    4    5    6    7    4    5    6    7    8    5    6    7    8    9    6    7    8    9   10    7    8    9   10   11  
  3    2    3    4    5    2    1    2    3    4    1    0    1    2    3    2    1    2    3    4    3    2    3    4    5    4    3    4    5    6    5    4    5    6    7    6    5    6    7    8    7    6    7    8    9    8    7    8    9   10  
  4    3    2    3    4    3    2    1    2    3    2    1    0    1    2    3    2    1    2    3    4    3    2    3    4    5    4    3    4    5    6    5    4    5    6    7    6    5    6    7    8    7    6    7    8    9    8    7    8    9  
  5    4    3    2    3    4    3    2    1    2    3    2    1    0    1    4    3    2    1    2    5    4    3    2    3    6    5    4    3    4    7    6    5    4    5    8    7    6    5    6    9    8    7    6    7   10    9    8    7    8  
  6    5    4    3    2    5    4    3    2    1    4    3    2    1    0    5    4    3    2    1    6    5    4    3    2    7    6    5    4    3    8    7    6    5    4    9    8    7    6    5   10    9    8    7    6   11   10    9    8    7  
  3    4    5    6    7    2    3    4    5    6    1    2    3    4    5    0    1    2    3    4    1    2    3    4    5    2    3    4    5    6    3    4    5    6    7    4    5    6    7    8    5    6    7    8    9    6    7    8    9   10  
  4    3    4    5    6    3    2    3    4    5    2    1    2    3    4    1    0    1    2    3    2    1    2    3    4    3    2    3    4    5    4    3    4    5    6    5    4    5    6    7    6    5    6    7    8    7    6    7    8    9  
  5    4    3    4    5    4    3    2    3    4    3    2    1    2    3    2    1    0    1    2    3    2    1    2    3    4    3    2    3    4    5    4    3    4    5    6    5    4    5    6    7    6    5    6    7    8    7    6    7    8  
  6    5    4    3    4    5    4    3    2    3    4    3    2    1    2    3    2    1    0    1    4    3    2    1    2    5    4    3    2    3    6    5    4    3    4    7    6    5    4    5    8    7    6    5    6    9    8    7    6    7  
  7    6    5    4    3    6    5    4    3    2    5    4    3    2    1    4    3    2    1    0    5    4    3    2    1    6    5    4    3    2    7    6    5    4    3    8    7    6    5    4    9    8    7    6    5   10    9    8    7    6  
  4    5    6    7    8    3    4    5    6    7    2    3    4    5    6    1    2    3    4    5    0    1    2    3    4    1    2    3    4    5    2    3    4    5    6    3    4    5    6    7    4    5    6    7    8    5    6    7    8    9  
  5    4    5    6    7    4    3    4    5    6    3    2    3    4    5    2    1    2    3    4    1    0    1    2    3    2    1    2    3    4    3    2    3    4    5    4    3    4    5    6    5    4    5    6    7    6    5    6    7    8  
  6    5    4    5    6    5    4    3    4    5    4    3    2    3    4    3    2    1    2    3    2    1    0    1    2    3    2    1    2    3    4    3    2    3    4    5    4    3    4    5    6    5    4    5    6    7    6    5    6    7  
  7    6    5    4    5    6    5    4    3    4    5    4    3    2    3    4    3    2    1    2    3    2    1    0    1    4    3    2    1    2    5    4    3    2    3    6    5    4    3    4    7    6    5    4    5    8    7    6    5    6  
  8    7    6    5    4    7    6    5    4    3    6    5    4    3    2    5    4    3    2    1    4    3    2    1    0    5    4    3    2    1    6    5    4    3    2    7    6    5    4    3    8    7    6    5    4    9    8    7    6    5  
  5    6    7    8    9    4    5    6    7    8    3    4    5    6    7    2    3    4    5    6    1    2    3    4    5    0    1    2    3    4    1    2    3    4    5    2    3    4    5    6    3    4    5    6    7    4    5    6    7    8  
  6    5    6    7    8    5    4    5    6    7    4    3    4    5    6    3    2    3    4    5    2    1    2    3    4    1    0    1    2    3    2    1    2    3    4    3    2    3    4    5    4    3    4    5    6    5    4    5    6    7  
  7    6    5    6    7    6    5    4    5    6    5    4    3    4    5    4    3    2    3    4    3    2    1    2    3    2    1    0    1    2    3    2    1    2    3    4    3    2    3    4    5    4    3    4    5    6    5    4    5    6  
  8    7    6    5    6    7    6    5    4    5    6    5    4    3    4    5    4    3    2    3    4    3    2    1    2    3    2    1    0    1    4    3    2    1    2    5    4    3    2    3    6    5    4    3    4    7    6    5    4    5  
  9    8    7    6    5    8    7    6    5    4    7    6    5    4    3    6    5    4    3    2    5    4    3    2    1    4    3    2    1    0    5    4    3    2    1    6    5    4    3    2    7    6    5    4    3    8    7    6    5    4  
  6    7    8    9   10    5    6    7    8    9    4    5    6    7    8    3    4    5    6    7    2    3    4    5    6    1    2    3    4    5    0    1    2    3    4    1    2    3    4    5    2    3    4    5    6    3    4    5    6    7  
  7    6    7    8    9    6    5    6    7    8    5    4    5    6    7    4    3    4    5    6    3    2    3    4    5    2    1    2    3    4    1    0    1    2    3    2    1    2    3    4    3    2    3    4    5    4    3    4    5    6  
  8    7    6    7    8    7    6    5    6    7    6    5    4    5    6    5    4    3    4    5    4    3    2    3    4    3    2    1    2    3    2    1    0    1    2    3    2    1    2    3    4    3    2    3    4    5    4    3    4    5  
  9    8    7    6    7    8    7    6    5    6    7    6    5    4    5    6    5    4    3    4    5    4    3    2    3    4    3    2    1    2    3    2    1    0    1    4    3    2    1    2    5    4    3    2    3    6    5    4    3    4  
 10    9    8    7    6    9    8    7    6    5    8    7    6    5    4    7    6    5    4    3    6    5    4    3    2    5    4    3    2    1    4    3    2    1    0    5    4    3    2    1    6    5    4    3    2    7    6    5    4    3  
  7    8    9   10   11    6    7    8    9   10    5    6    7    8    9    4    5    6    7    8    3    4    5    6    7    2    3    4    5    6    1    2    3    4    5    0    1    2    3    4    1    2    3    4    5    2    3    4    5    6  
  8    7    8    9   10    7    6    7    8    9    6    5    6    7    8    5    4    5    6    7    4    3    4    5    6    3    2    3    4    5    2    1    2    3    4    1    0    1    2    3    2    1    2    3    4    3    2    3    4    5  
  9    8    7    8    9    8    7    6    7    8    7    6    5    6    7    6    5    4    5    6    5    4    3    4    5    4    3    2    3    4    3    2    1    2    3    2    1    0    1    2    3    2    1    2    3    4    3    2    3    4  
 10    9    8    7    8    9    8    7    6    7    8    7    6    5    6    7    6    5    4    5    6    5    4    3    4    5    4    3    2    3    4    3    2    1    2    3    2    1    0    1    4    3    2    1    2    5    4    3    2    3  
 11   10    9    8    7   10    9    8    7    6    9    8    7    6    5    8    7    6    5    4    7    6    5    4    3    6    5    4    3    2    5    4    3    2    1    4    3    2    1    0    5    4    3    2    1    6    5    4    3    2  
  8    9   10   11   12    7    8    9   10   11    6    7    8    9   10    5    6    7    8    9    4    5    6    7    8    3    4    5    6    7    2    3    4    5    6    1    2    3    4    5    0    1    2    3    4    1    2    3    4    5  
  9    8    9   10   11    8    7    8    9   10    7    6    7    8    9    6    5    6    7    8    5    4    5    6    7    4    3    4    5    6    3    2    3    4    5    2    1    2    3    4    1    0    1    2    3    2    1    2    3    4  
 10    9    8    9   10    9    8    7    8    9    8    7    6    7    8    7    6    5    6    7    6    5    4    5    6    5    4    3    4    5    4    3    2    3    4    3    2    1    2    3    2    1    0    1    2    3    2    1    2    3  
 11   10    9    8    9   10    9    8    7    8    9    8    7    6    7    8    7    6    5    6    7    6    5    4    5    6    5    4    3    4    5    4    3    2    3    4    3    2    1    2    3    2    1    0    1    4    3    2    1    2  
 12   11   10    9    8   11   10    9    8    7   10    9    8    7    6    9    8    7    6    5    8    7    6    5    4    7    6    5    4    3    6    5    4    3    2    5    4    3    2    1    4    3    2    1    0    5    4    3    2    1  
  9   10   11   12   13    8    9   10   11   12    7    8    9   10   11    6    7    8    9   10    5    6    7    8    9    4    5    6    7    8    3    4    5    6    7    2    3    4    5    6    1    2    3    4    5    0    1    2    3    4  
 10    9   10   11   12    9    8    9   10   11    8    7    8    9   10    7    6    7    8    9    6    5    6    7    8    5    4    5    6    7    4    3    4    5    6    3    2    3    4    5    2    1    2    3    4    1    0    1    2    3  
 11   10    9   10   11   10    9    8    9   10    9    8    7    8    9    8    7    6    7    8    7    6    5    6    7    6    5    4    5    6    5    4    3    4    5    4    3    2    3    4    3    2    1    2    3    2    1    0    1    2  
 12   11   10    9   10   11   10    9    8    9   10    9    8    7    8    9    8    7    6    7    8    7    6    5    6    7    6    5    4    5    6    5    4    3    4    5    4    3    2    3    4    3    2    1    2    3    2    1    0    1  
 13   12   11   10    9   12   11   10    9    8   11   10    9    8    7   10    9    8    7    6    9    8    7    6    5    8    7    6    5    4    7    6    5    4    3    6    5    4    3    2    5    4    3    2    1    4    3    2    1    0  

  0    0    0   16    0   75    0    0    0    0    0   23    0    0   43   79    9   63   22   89    0   78   36   73    0   34   66    0   31    0    0    0   20    0    0    0    0    0   76    0    0    0   97   75    0   37   96    0    0   33  
 77    0   90    0   43    0   23   95    0   65   57    0    0   46    0    0    0    0    0    0    2    0    0    0    0    0    0    0    0   49    0    0   90    7    0    0    0   65    0   54   19    0    0    0   22    0    0   81    0    0  
  0   21    0    0   60   41   12   18   77    7   83    0    0    0    0    0    0    0    0    0   71    0    0    0    0    0    0    0    0   14    0    0    0    0   80    0    0   53    0   54   91    0   59    0   70    0    0    8    0    0  
 70    0    0    0   88    9    0    0   60   71    0    0    0    0   91   30   18    0   53   74    0   21  100    0   39    3   99    0    0    0    0    0    0    0   73    0    6    0   31   93    0   90   47    0    0   77    2    0    0   95  
  0   43   86   18    0    0   84   85   85    5   50    0    0   79   74    0    0    0    0    0   83    0    0    0    0    0   41    0   58   96    0    0   59    6   69    0    0   69    0   10   66    8   83    0   19    0    0   35    0   48  
 21    0    0   25    0    0    0    0    0    0   94  100   18   53   72   80    0   37   81   77    0    0   25   34    0   88   71   94   28   43   64   82   40   66    0   65    0    0   48   81    0   20   67   83   63   45   75   67    0   12  
  0   38    6    0   67    0    0   73    0   39   15    0    0   22    0    0    0    0    0    0   46    0    0    0    0    0    0    0    0   20    0    0    0   85   53    0    0    8    0   53    4    0   48    0    7    0    0   80    0    0  
  0   90   43    0   84    0   82    0   18   96   23    0    0    0    0    0    0    0    0    0   65    0    0    0   92    0    0    0    0   69    0    0    0    0   67    0    0   52    0   88   70    0   10    0   46    0    0   56    0    0  
  0    0   72   74   66    0    0   33    0    0   60    0    0    0   55    0    0    0   29    0    0   27   71    0   81    0   11    0    0    0    0    0    0    0    9    0   91    0   20   32   89    0   53    0    0    0   36    0    0   58  
  0   73   98   32   78    0   94   79    0    0   51    0    0    0    0    0    0    0    0    0   10    0    0    0    0    0    0    0    0   11    0    0    0    0    0    0    0   92    0   28   68    0    0    0   97    0    0   84    0    0  
  0   22   61    0   83    0  100   66   91   50    0    0    0    0   73    0   78    0    0    0   27    0    0    0   61    0    0    0    0    7    0    0    0    0   11    0   32   13    0   57   81    0   14    0   78    0    0   35    0    0  
 22    0    0    0    0    3    0    0    0    0    0    0   22   27   65    8    0   97   30   12    0   89   10   17    0   95   73   55   88    0   47   17   16   22    0   41    0    0    0   35    0   17   54   73    0   56   52   60    0   38  
  0    0    0    0    0   98    0    0    0    0   74   39    0   32   24   29   44   51    0    0   21    0    0   23    0   46   79   30   13    0   42   41    4   16    0   85    0   15    0   32    0   69   11    0  100    0    0   77   32   55  
  0   95    0    0   40   46   61    0    0    0    0   50   90    0   36   29    0   54    0    0   38    0    0   53    0   41   14    7    0   86   98   74    0   92    0   51    0   20    0   38    0    2   84    0   39   30    0   15   28   32  
 29    0    0   58   23   86    0    0    5    0    0   42   62   56    0   53   40   83   59   22    0   59   91   22   81   23   49   96    0    0    0   31    0    0   90    0    0    0   79   60    0   88   21    0   14   45   55   17    0   87  
  4    0   39   56    0   13    0    9    0    0    0   63   39   19   78    0   60   17   59   39    0    0   44   77    0    6   70   34   17    0   10    6   68   30   56   34    0    0   41   52    0   21   55   44   16   58   97   59    0   56  
 83    0    0   20    0    0    0    0    0    0    0    0    0    0    3   45    0    0   77   84    0   54   68    0   16   85   43    0    0    0    0   79    0    0    0    0    0    0   95    0    0    0   94    0    0   61   13    0    0   45  
 75   26    0    0    0   13    0    0    0    0    0   41   69   89   63   69    0    0    0   36    0    0    0   27    0   28   92    1   24    0   29   35   70   16    0   38    0    0    0   93    0   34   96   33    0    0    0   34   78   52  
 39    0    0   56    0   66    0    0   91    0    0   25    0    0   89   53   53    0    0  100    0   96    5    0   39   64  100    0    0    0    0    0   85    0   20    0   59    0   27   52    0   97   15    0    0   53   73    0    0   65  
 94    0    0    7    0   63    0    0    0   93    0   23    0    0   16   30   11   47   47    0    0   65   44   63    0   97   96    0   67    0    0    6   15    0   41    0    0    0   24    0    0   65   79   61    0   19   56    0    0    1  
  0   32   83    0   60    0   19   95    0   31   60    0   74   63    0    0    0    0    0    0    0    0    0    0    0    0    0    8    2   75   35    0    0   97    0   72   19   99    0   43    7   60    6    0   19    0    0   57    0    0  
 22    0    0   26    0    0    0    0   20    0    0    0    0    5   71    0   63    0   15   25    0    0   77    0   61    0   92    0    0    0    0    0    0    0   12    0   61    0   13    0    0    0   17    0    0   70   49    0    0   23  
 92    0    0   72    0   56    2    0   45    0    0   45    0    0   68   19    2    0   25   96    0   72    0    0   10   74   80    0    0    0    0    0    0    0   11    0   80    0   89   24    0   21   51    0    0   94   34    0    0   92  
 82    0    0    0    0    6    0    0    0    0    0   92   28   81   52   31    0   19    0   78    0    0    0    0    0    1   78   99   12    0   92   53   79   59    0   18    0    0    0    0    0   61    0    9    0    0    0    0    0   73  
  0    0    0   27    0    0    0   77   33    0    7    0    0    0   87    0   65    0   83    0    0   75   55    0    0    0   95    0    0    0    0    0    0    0   13    0   22    0   46    0    0    0   17    0    0    0    4    0    0   39  
 72    0    0   93    0   96    0    0    0   97    0   19   84   22   66   67   80   18   72   73    0    0   65   33    0    0   27    0   90    0   67   71    5   22    0    0    0    0   94    0    0   90   44   85    0   70   47    0    0   71  
  5    0    0   50    6   37    0    0   57    0    0   76   62   19   40   86   54   83    4    4    0   13    5   49    1   42    0    0   79    0   64   29   95    0   40    0    0    0   85    1    0   11   83   78   99   39   61   74    0   93  
  0    0    0    0    0   71    0    0    0    0    0   42   59   46    0   67    0   22    1    0   15    0    0   38    0    0    0    0    0    0   22   25    0   56    0   29    0   80    0   65    0   29    0    0   76    0    0   66   20   97  
 83    0    0    0    0   35    0    0    0    0    0   46    0    0    0   24    0   83   66   55   61    0    0   45    0   18   69    0    0    0    0   20   32    0    0    0    0    0    0    0    0   95    0   61    0   91    0    0    0   73  
 17   56   27    0    8    0   70   72    0    6   18    0    0   27    0    0    0    0    0    0   94    0    0    0   91    0    0    0    0    0    0    0    0    0   71    0    0   67    0   66    5    0   90    0   67    0    0   81    0    0  
  6    0    0    0    0   86    0    0    0    0    0   70   99    4    0   28    0   22    0    0   65    0    0   60    0   50   72   18    0    0    0   12    0   44    0   27    0   25    0   23    0   32    0    0   29    0    0   49   98   10  
  0    0   72    0    0   26    0    0    0    0    0   64   78   84   89   10    0   34    0   13    0    0    0   41    0   56   61   34   34    0   78    0   72   17    0   38    0    0    0   31    0   81   77   53    0    0    0    0   68   49  
 68    0    0    0    0   29    0    0    0    0    0   93   56    0    0   26    0   72    0    8   76    0    0   79    0   78   53    0   49    0    0   92    0    0    0    0    0    0    0    0    0   93    0   79    0   58    0    0    0   79  
  0   96   54    0   47   45   37    0    0    0    0   60    3   19    0   47    0   22    0    0   14    0    0   74    0    0    0   60    0    0   20   96   58    0    0   39    0   70    0    9    0   27    0    0   85    0    0   90   16    9  
  0    0   46   85   39    0    2    3   91    0   17    0    0    0   67   65    0    0   66   81    0   77   37    0   85    0   23    0    0   82    0    0    0    0    0    0   84   97   16    1   30   59   97    0   38    0   46   50    0   55  
 21    0    0    0    0   57    0    0    0    0    0   19   87   65    0   99    0   13    0    0   51    0    0   69    0    0    0   99   32    0   45   66    0   75    0    0    0    0    0    0    0   19    0    0   18    0    0   36   47    0  
  0    0    0   19    0    0    0    0   75    0    0    0    0    0    0    0    0    0   97    0    0  100   90    0   29   64    0    0    0    4    0    0    0    0   51    0    0    0   22    0    0    0    0    0    0    0   68    0    0    0  
  0   61    3    0   31   93   84   33    0   10   79    0   65   65    0    0    0    0    0    0   38    0    0    0    0    0    0   67    0   36   42   44    0   80   39    0    0    0    0   83   69   61    4    0   76    0    0    9    0    0  
 58    0    0    9    0    0    0    0   58    0    0    0    0    0   41   37    1    0   50   50    0   77   98    0   24   98   47    0    0    0    0    0    0    0   43    0   49    0    0    0    0    0   96    0    0   71   73    0    0   43  
  0   41   65    5   44   18    8   15   71   65   51   51   32   52   18   63    0   79   27    0   27    0   78    0    0    0   40   77    0   62   19   66    0   19   64    0    0   44    0    0   84    3    6    0   58    0   92   48    0   20  
  0   91   33    0   24    0   46   82    1   18   20    0    0    0   21    0    0    0    0    0   23    0    0    0    0    0    0    0    0   14   75    0    0    0   90    0    0   24    0   20    0    0  100    0   54    0    0   97    0    0  
  0    0    0   54   23   23    0    0    0    0    0   90   84   65   89   89    0   54   93   25   94    0   86   43    0   11   84    1   62    0   40   41   27   27   39   78    0   31    0   42    0    0    9   96   34    0   96   38    0  100  
 63    0   28   81   72    5   67   75   97    0   34   39   76   49   57   45   78   95   71   36   57   50   85    0   60   24   43    0    0   20    0   45    0    0   88    0    0   75   11   13    0   51    0    0    5    0    7   97    0   34  
 83    0    0    0    0   53    0    0   63    0    0    5    0    0    0   40    0   37    0   26    0    0    0   15    0   44   27    0   96    0    0   63   20    0    0    0    0    0    0   91   12   20    0    0    0    6    0    0    0   30  
  0   23   52    0   19   11   87   15    0   75   62    0    6   21    5    2    0    0    0    0   96    0    0    0    0    0   66   94    0   55   85    0    0   88   86   17    0   86    0   33   79   91   80    0    0    0    0   20    0   26  
 39    0    0   90    0   30    0    0    0    0    0   18    0    0   30   81   47    0    7   16    0   33   29    0    0   24   17    0   88    0    0    0   85    0    0    0    0    0   21    0    0    0    0   97    0    0   60    0    0   40  
 62    0    0   27    0   33    0    0   94    0    0   30    0    0   77   76   77   17   12   93    0   19   41    0   59   37   44    0    0    0    0    0   48    0    4    0    7    0   13   53    0   35   89   83    0   27    0    0    0   24  
  0   72   16    0   80   97   62   34    0   58   22   82   31   92   89   86    0    0    0    0    1    0    0    0    0    0    3   69    0   54   17    0    0   44   85   30    0   18    0   84   21   73   37    0   15    0    0    0    0   86  
  0    0    0    0   40    0    0    0    0    0    0    0   12    1    0    0    0   57    0    0    0    0    0   28    0    0   90   13    0    0   43   69    0   49    0   24    0    0   27    0    0    0    0    0    0    0    0    0    0    0  
 98    0    0   99   55   10    0   81   82    0    0   16   44   38    9   91   97   81   13   66    0   19   62   49   49   93   74   32   23    0   28   29    3    8    6    0    0    0   58   54    0   79   30   28   32   26   40   50    0    0  
